(declare-fun g () String)
(declare-fun h () String)
(declare-fun i () String)
(declare-fun j () String)
(declare-fun w () String)  
(assert (GrammarIn "google = microsoft" (Str2Grm "$OREXPRESSION"))) 
(assert (GrammarIn "1234" (Str2Grm "$NUMBER")))
(assert (GrammarIn "apple" (Str2Grm "$STRING")))
(assert (GrammarIn "1 > 2" (Str2Grm "$COMPARAISON")))
(assert (GrammarIn " or " (Str2Grm "$OROP")))
(assert (GrammarIn w (Str2Grm "$ANDEXPRESSION")))       
(assert (= g (Concat " not apple = google  or  not" h)))
(assert (= j " > samsung"))   
(assert (= w (Concat g j)))   
(assert (< (Length h) 20)) 
(assert (< (Length j) 30))  
(check-sat)